2027070
45,33,42,6,10,5,48,4,59,41,60,23,0,11,53,18,22,40,29,24,28,39,55,31,12,46,19,62,15,1,47,3,64,44,8,26,16,57,14,58,7,67,52,50,61,38,34,36,35,27,49,43,21,32,56,9,17,51,13,30,20,2,37,63,66,65,25,54